* #variable= 1302 #constraint= 1277 
-1 x29 +1 x1 >= 0 ;
-1 x29 +1 x15 >= 0 ;
+1 x29 -1 x1 -1 x15 >= -1 ;
-1 x43 +1 x15 >= 0 ;
-1 x43 +1 x57 >= 0 ;
+1 x43 -1 x15 -1 x57 >= -1 ;
+1 x15 = 0 ;
-1 x30 +1 x2 >= 0 ;
-1 x30 +1 x16 >= 0 ;
+1 x30 -1 x2 -1 x16 >= -1 ;
-1 x44 +1 x16 >= 0 ;
-1 x44 +1 x58 >= 0 ;
+1 x44 -1 x16 -1 x58 >= -1 ;
+1 x16 = 1 ;
-1 x31 +1 x3 >= 0 ;
-1 x31 +1 x17 >= 0 ;
+1 x31 -1 x3 -1 x17 >= -1 ;
-1 x45 +1 x17 >= 0 ;
-1 x45 +1 x59 >= 0 ;
+1 x45 -1 x17 -1 x59 >= -1 ;
+1 x17 = 0 ;
-1 x32 +1 x4 >= 0 ;
-1 x32 +1 x18 >= 0 ;
+1 x32 -1 x4 -1 x18 >= -1 ;
-1 x46 +1 x18 >= 0 ;
-1 x46 +1 x60 >= 0 ;
+1 x46 -1 x18 -1 x60 >= -1 ;
+1 x18 = 1 ;
-1 x33 +1 x5 >= 0 ;
-1 x33 +1 x19 >= 0 ;
+1 x33 -1 x5 -1 x19 >= -1 ;
-1 x47 +1 x19 >= 0 ;
-1 x47 +1 x61 >= 0 ;
+1 x47 -1 x19 -1 x61 >= -1 ;
+1 x19 = 0 ;
-1 x34 +1 x6 >= 0 ;
-1 x34 +1 x20 >= 0 ;
+1 x34 -1 x6 -1 x20 >= -1 ;
-1 x48 +1 x20 >= 0 ;
-1 x48 +1 x62 >= 0 ;
+1 x48 -1 x20 -1 x62 >= -1 ;
+1 x20 = 1 ;
-1 x35 +1 x7 >= 0 ;
-1 x35 +1 x21 >= 0 ;
+1 x35 -1 x7 -1 x21 >= -1 ;
-1 x49 +1 x21 >= 0 ;
-1 x49 +1 x63 >= 0 ;
+1 x49 -1 x21 -1 x63 >= -1 ;
+1 x21 = 0 ;
-1 x36 +1 x8 >= 0 ;
-1 x36 +1 x22 >= 0 ;
+1 x36 -1 x8 -1 x22 >= -1 ;
-1 x50 +1 x22 >= 0 ;
-1 x50 +1 x64 >= 0 ;
+1 x50 -1 x22 -1 x64 >= -1 ;
+1 x22 = 1 ;
-1 x37 +1 x9 >= 0 ;
-1 x37 +1 x23 >= 0 ;
+1 x37 -1 x9 -1 x23 >= -1 ;
-1 x51 +1 x23 >= 0 ;
-1 x51 +1 x65 >= 0 ;
+1 x51 -1 x23 -1 x65 >= -1 ;
+1 x23 = 0 ;
-1 x38 +1 x10 >= 0 ;
-1 x38 +1 x24 >= 0 ;
+1 x38 -1 x10 -1 x24 >= -1 ;
-1 x52 +1 x24 >= 0 ;
-1 x52 +1 x66 >= 0 ;
+1 x52 -1 x24 -1 x66 >= -1 ;
+1 x24 = 1 ;
-1 x39 +1 x11 >= 0 ;
-1 x39 +1 x25 >= 0 ;
+1 x39 -1 x11 -1 x25 >= -1 ;
-1 x53 +1 x25 >= 0 ;
-1 x53 +1 x67 >= 0 ;
+1 x53 -1 x25 -1 x67 >= -1 ;
+1 x25 = 0 ;
-1 x40 +1 x12 >= 0 ;
-1 x40 +1 x26 >= 0 ;
+1 x40 -1 x12 -1 x26 >= -1 ;
-1 x54 +1 x26 >= 0 ;
-1 x54 +1 x68 >= 0 ;
+1 x54 -1 x26 -1 x68 >= -1 ;
+1 x26 = 1 ;
-1 x41 +1 x13 >= 0 ;
-1 x41 +1 x27 >= 0 ;
+1 x41 -1 x13 -1 x27 >= -1 ;
-1 x55 +1 x27 >= 0 ;
-1 x55 +1 x69 >= 0 ;
+1 x55 -1 x27 -1 x69 >= -1 ;
+1 x27 = 0 ;
-1 x42 +1 x14 >= 0 ;
-1 x42 +1 x28 >= 0 ;
+1 x42 -1 x14 -1 x28 >= -1 ;
-1 x56 +1 x28 >= 0 ;
-1 x56 +1 x70 >= 0 ;
+1 x56 -1 x28 -1 x70 >= -1 ;
+1 x28 = 1 ;
-1 x71 +1 x29 >= 0 ;
-1 x71 +1 x43 >= 0 ;
+1 x71 -1 x29 -1 x43 >= -1 ;
+1 x71 +2 x85 +4 x99 +8 x113 +16 x127 +32 x141 +64 x155 +128 x169 +256 x183 +512 x197 +1024 x211 +2048 x225 +4096 x239 +8192 x253 +2 x72 +4 x86 +8 x100 +16 x114 +32 x128 +64 x142 +128 x156 +256 x170 +512 x184 +1024 x198 +2048 x212 +4096 x226 +8192 x240 +16384 x254 +4 x73 +8 x87 +16 x101 +32 x115 +64 x129 +128 x143 +256 x157 +512 x171 +1024 x185 +2048 x199 +4096 x213 +8192 x227 +16384 x241 +32768 x255 +8 x74 +16 x88 +32 x102 +64 x116 +128 x130 +256 x144 +512 x158 +1024 x172 +2048 x186 +4096 x200 +8192 x214 +16384 x228 +32768 x242 +65536 x256 +16 x75 +32 x89 +64 x103 +128 x117 +256 x131 +512 x145 +1024 x159 +2048 x173 +4096 x187 +8192 x201 +16384 x215 +32768 x229 +65536 x243 +131072 x257 +32 x76 +64 x90 +128 x104 +256 x118 +512 x132 +1024 x146 +2048 x160 +4096 x174 +8192 x188 +16384 x202 +32768 x216 +65536 x230 +131072 x244 +262144 x258 +64 x77 +128 x91 +256 x105 +512 x119 +1024 x133 +2048 x147 +4096 x161 +8192 x175 +16384 x189 +32768 x203 +65536 x217 +131072 x231 +262144 x245 +524288 x259 +128 x78 +256 x92 +512 x106 +1024 x120 +2048 x134 +4096 x148 +8192 x162 +16384 x176 +32768 x190 +65536 x204 +131072 x218 +262144 x232 +524288 x246 +1048576 x260 +256 x79 +512 x93 +1024 x107 +2048 x121 +4096 x135 +8192 x149 +16384 x163 +32768 x177 +65536 x191 +131072 x205 +262144 x219 +524288 x233 +1048576 x247 +2097152 x261 +512 x80 +1024 x94 +2048 x108 +4096 x122 +8192 x136 +16384 x150 +32768 x164 +65536 x178 +131072 x192 +262144 x206 +524288 x220 +1048576 x234 +2097152 x248 +4194304 x262 +1024 x81 +2048 x95 +4096 x109 +8192 x123 +16384 x137 +32768 x151 +65536 x165 +131072 x179 +262144 x193 +524288 x207 +1048576 x221 +2097152 x235 +4194304 x249 +8388608 x263 +2048 x82 +4096 x96 +8192 x110 +16384 x124 +32768 x138 +65536 x152 +131072 x166 +262144 x180 +524288 x194 +1048576 x208 +2097152 x222 +4194304 x236 +8388608 x250 +16777216 x264 +4096 x83 +8192 x97 +16384 x111 +32768 x125 +65536 x139 +131072 x153 +262144 x167 +524288 x181 +1048576 x195 +2097152 x209 +4194304 x223 +8388608 x237 +16777216 x251 +33554432 x265 +8192 x84 +16384 x98 +32768 x112 +65536 x126 +131072 x140 +262144 x154 +524288 x168 +1048576 x182 +2097152 x196 +4194304 x210 +8388608 x224 +16777216 x238 +33554432 x252 +67108864 x266 -1 x1247 -2 x1248 -4 x1249 -8 x1250 -16 x1251 -32 x1252 -64 x1253 -128 x1254 -256 x1255 -512 x1256 -1024 x1257 -2048 x1258 -4096 x1259 -8192 x1260 -16384 x1261 -32768 x1262 -65536 x1263 -131072 x1264 -262144 x1265 -524288 x1266 -1048576 x1267 -2097152 x1268 -4194304 x1269 -8388608 x1270 -16777216 x1271 -33554432 x1272 -67108864 x1273 -134217728 x1274 = 0; 
-1 x659 +1 x15 >= 0 ;
-1 x659 +1 x1 >= 0 ;
+1 x659 -1 x15 -1 x1 >= -1 ;
+1 x659 +2 x673 +4 x687 +8 x701 +16 x715 +32 x729 +64 x743 +128 x757 +256 x771 +512 x785 +1024 x799 +2048 x813 +4096 x827 +8192 x841 +2 x660 +4 x674 +8 x688 +16 x702 +32 x716 +64 x730 +128 x744 +256 x758 +512 x772 +1024 x786 +2048 x800 +4096 x814 +8192 x828 +16384 x842 +4 x661 +8 x675 +16 x689 +32 x703 +64 x717 +128 x731 +256 x745 +512 x759 +1024 x773 +2048 x787 +4096 x801 +8192 x815 +16384 x829 +32768 x843 +8 x662 +16 x676 +32 x690 +64 x704 +128 x718 +256 x732 +512 x746 +1024 x760 +2048 x774 +4096 x788 +8192 x802 +16384 x816 +32768 x830 +65536 x844 +16 x663 +32 x677 +64 x691 +128 x705 +256 x719 +512 x733 +1024 x747 +2048 x761 +4096 x775 +8192 x789 +16384 x803 +32768 x817 +65536 x831 +131072 x845 +32 x664 +64 x678 +128 x692 +256 x706 +512 x720 +1024 x734 +2048 x748 +4096 x762 +8192 x776 +16384 x790 +32768 x804 +65536 x818 +131072 x832 +262144 x846 +64 x665 +128 x679 +256 x693 +512 x707 +1024 x721 +2048 x735 +4096 x749 +8192 x763 +16384 x777 +32768 x791 +65536 x805 +131072 x819 +262144 x833 +524288 x847 +128 x666 +256 x680 +512 x694 +1024 x708 +2048 x722 +4096 x736 +8192 x750 +16384 x764 +32768 x778 +65536 x792 +131072 x806 +262144 x820 +524288 x834 +1048576 x848 +256 x667 +512 x681 +1024 x695 +2048 x709 +4096 x723 +8192 x737 +16384 x751 +32768 x765 +65536 x779 +131072 x793 +262144 x807 +524288 x821 +1048576 x835 +2097152 x849 +512 x668 +1024 x682 +2048 x696 +4096 x710 +8192 x724 +16384 x738 +32768 x752 +65536 x766 +131072 x780 +262144 x794 +524288 x808 +1048576 x822 +2097152 x836 +4194304 x850 +1024 x669 +2048 x683 +4096 x697 +8192 x711 +16384 x725 +32768 x739 +65536 x753 +131072 x767 +262144 x781 +524288 x795 +1048576 x809 +2097152 x823 +4194304 x837 +8388608 x851 +2048 x670 +4096 x684 +8192 x698 +16384 x712 +32768 x726 +65536 x740 +131072 x754 +262144 x768 +524288 x782 +1048576 x796 +2097152 x810 +4194304 x824 +8388608 x838 +16777216 x852 +4096 x671 +8192 x685 +16384 x699 +32768 x713 +65536 x727 +131072 x741 +262144 x755 +524288 x769 +1048576 x783 +2097152 x797 +4194304 x811 +8388608 x825 +16777216 x839 +33554432 x853 +8192 x672 +16384 x686 +32768 x700 +65536 x714 +131072 x728 +262144 x742 +524288 x756 +1048576 x770 +2097152 x784 +4194304 x798 +8388608 x812 +16777216 x826 +33554432 x840 +67108864 x854 -1 x1275 -2 x1276 -4 x1277 -8 x1278 -16 x1279 -32 x1280 -64 x1281 -128 x1282 -256 x1283 -512 x1284 -1024 x1285 -2048 x1286 -4096 x1287 -8192 x1288 -16384 x1289 -32768 x1290 -65536 x1291 -131072 x1292 -262144 x1293 -524288 x1294 -1048576 x1295 -2097152 x1296 -4194304 x1297 -8388608 x1298 -16777216 x1299 -33554432 x1300 -67108864 x1301 -134217728 x1302 = 0; 
+1 x1247 -1 x1275 +2 x1248 -2 x1276 +4 x1249 -4 x1277 +8 x1250 -8 x1278 +16 x1251 -16 x1279 +32 x1252 -32 x1280 +64 x1253 -64 x1281 +128 x1254 -128 x1282 +256 x1255 -256 x1283 +512 x1256 -512 x1284 +1024 x1257 -1024 x1285 +2048 x1258 -2048 x1286 +4096 x1259 -4096 x1287 +8192 x1260 -8192 x1288 +16384 x1261 -16384 x1289 +32768 x1262 -32768 x1290 +65536 x1263 -65536 x1291 +131072 x1264 -131072 x1292 +262144 x1265 -262144 x1293 +524288 x1266 -524288 x1294 +1048576 x1267 -1048576 x1295 +2097152 x1268 -2097152 x1296 +4194304 x1269 -4194304 x1297 +8388608 x1270 -8388608 x1298 +16777216 x1271 -16777216 x1299 +33554432 x1272 -33554432 x1300 +67108864 x1273 -67108864 x1301 +134217728 x1274 -134217728 x1302 >= 1 ;
-1 x85 +1 x30 >= 0 ;
-1 x85 +1 x43 >= 0 ;
+1 x85 -1 x30 -1 x43 >= -1 ;
-1 x72 +1 x29 >= 0 ;
-1 x72 +1 x44 >= 0 ;
+1 x72 -1 x29 -1 x44 >= -1 ;
-1 x673 +1 x16 >= 0 ;
-1 x673 +1 x1 >= 0 ;
+1 x673 -1 x16 -1 x1 >= -1 ;
-1 x660 +1 x15 >= 0 ;
-1 x660 +1 x2 >= 0 ;
+1 x660 -1 x15 -1 x2 >= -1 ;
-1 x99 +1 x31 >= 0 ;
-1 x99 +1 x43 >= 0 ;
+1 x99 -1 x31 -1 x43 >= -1 ;
-1 x86 +1 x30 >= 0 ;
-1 x86 +1 x44 >= 0 ;
+1 x86 -1 x30 -1 x44 >= -1 ;
-1 x73 +1 x29 >= 0 ;
-1 x73 +1 x45 >= 0 ;
+1 x73 -1 x29 -1 x45 >= -1 ;
-1 x687 +1 x17 >= 0 ;
-1 x687 +1 x1 >= 0 ;
+1 x687 -1 x17 -1 x1 >= -1 ;
-1 x674 +1 x16 >= 0 ;
-1 x674 +1 x2 >= 0 ;
+1 x674 -1 x16 -1 x2 >= -1 ;
-1 x661 +1 x15 >= 0 ;
-1 x661 +1 x3 >= 0 ;
+1 x661 -1 x15 -1 x3 >= -1 ;
-1 x113 +1 x32 >= 0 ;
-1 x113 +1 x43 >= 0 ;
+1 x113 -1 x32 -1 x43 >= -1 ;
-1 x100 +1 x31 >= 0 ;
-1 x100 +1 x44 >= 0 ;
+1 x100 -1 x31 -1 x44 >= -1 ;
-1 x87 +1 x30 >= 0 ;
-1 x87 +1 x45 >= 0 ;
+1 x87 -1 x30 -1 x45 >= -1 ;
-1 x74 +1 x29 >= 0 ;
-1 x74 +1 x46 >= 0 ;
+1 x74 -1 x29 -1 x46 >= -1 ;
-1 x701 +1 x18 >= 0 ;
-1 x701 +1 x1 >= 0 ;
+1 x701 -1 x18 -1 x1 >= -1 ;
-1 x688 +1 x17 >= 0 ;
-1 x688 +1 x2 >= 0 ;
+1 x688 -1 x17 -1 x2 >= -1 ;
-1 x675 +1 x16 >= 0 ;
-1 x675 +1 x3 >= 0 ;
+1 x675 -1 x16 -1 x3 >= -1 ;
-1 x662 +1 x15 >= 0 ;
-1 x662 +1 x4 >= 0 ;
+1 x662 -1 x15 -1 x4 >= -1 ;
-1 x127 +1 x33 >= 0 ;
-1 x127 +1 x43 >= 0 ;
+1 x127 -1 x33 -1 x43 >= -1 ;
-1 x114 +1 x32 >= 0 ;
-1 x114 +1 x44 >= 0 ;
+1 x114 -1 x32 -1 x44 >= -1 ;
-1 x101 +1 x31 >= 0 ;
-1 x101 +1 x45 >= 0 ;
+1 x101 -1 x31 -1 x45 >= -1 ;
-1 x88 +1 x30 >= 0 ;
-1 x88 +1 x46 >= 0 ;
+1 x88 -1 x30 -1 x46 >= -1 ;
-1 x75 +1 x29 >= 0 ;
-1 x75 +1 x47 >= 0 ;
+1 x75 -1 x29 -1 x47 >= -1 ;
-1 x715 +1 x19 >= 0 ;
-1 x715 +1 x1 >= 0 ;
+1 x715 -1 x19 -1 x1 >= -1 ;
-1 x702 +1 x18 >= 0 ;
-1 x702 +1 x2 >= 0 ;
+1 x702 -1 x18 -1 x2 >= -1 ;
-1 x689 +1 x17 >= 0 ;
-1 x689 +1 x3 >= 0 ;
+1 x689 -1 x17 -1 x3 >= -1 ;
-1 x676 +1 x16 >= 0 ;
-1 x676 +1 x4 >= 0 ;
+1 x676 -1 x16 -1 x4 >= -1 ;
-1 x663 +1 x15 >= 0 ;
-1 x663 +1 x5 >= 0 ;
+1 x663 -1 x15 -1 x5 >= -1 ;
-1 x141 +1 x34 >= 0 ;
-1 x141 +1 x43 >= 0 ;
+1 x141 -1 x34 -1 x43 >= -1 ;
-1 x128 +1 x33 >= 0 ;
-1 x128 +1 x44 >= 0 ;
+1 x128 -1 x33 -1 x44 >= -1 ;
-1 x115 +1 x32 >= 0 ;
-1 x115 +1 x45 >= 0 ;
+1 x115 -1 x32 -1 x45 >= -1 ;
-1 x102 +1 x31 >= 0 ;
-1 x102 +1 x46 >= 0 ;
+1 x102 -1 x31 -1 x46 >= -1 ;
-1 x89 +1 x30 >= 0 ;
-1 x89 +1 x47 >= 0 ;
+1 x89 -1 x30 -1 x47 >= -1 ;
-1 x76 +1 x29 >= 0 ;
-1 x76 +1 x48 >= 0 ;
+1 x76 -1 x29 -1 x48 >= -1 ;
-1 x729 +1 x20 >= 0 ;
-1 x729 +1 x1 >= 0 ;
+1 x729 -1 x20 -1 x1 >= -1 ;
-1 x716 +1 x19 >= 0 ;
-1 x716 +1 x2 >= 0 ;
+1 x716 -1 x19 -1 x2 >= -1 ;
-1 x703 +1 x18 >= 0 ;
-1 x703 +1 x3 >= 0 ;
+1 x703 -1 x18 -1 x3 >= -1 ;
-1 x690 +1 x17 >= 0 ;
-1 x690 +1 x4 >= 0 ;
+1 x690 -1 x17 -1 x4 >= -1 ;
-1 x677 +1 x16 >= 0 ;
-1 x677 +1 x5 >= 0 ;
+1 x677 -1 x16 -1 x5 >= -1 ;
-1 x664 +1 x15 >= 0 ;
-1 x664 +1 x6 >= 0 ;
+1 x664 -1 x15 -1 x6 >= -1 ;
-1 x155 +1 x35 >= 0 ;
-1 x155 +1 x43 >= 0 ;
+1 x155 -1 x35 -1 x43 >= -1 ;
-1 x142 +1 x34 >= 0 ;
-1 x142 +1 x44 >= 0 ;
+1 x142 -1 x34 -1 x44 >= -1 ;
-1 x129 +1 x33 >= 0 ;
-1 x129 +1 x45 >= 0 ;
+1 x129 -1 x33 -1 x45 >= -1 ;
-1 x116 +1 x32 >= 0 ;
-1 x116 +1 x46 >= 0 ;
+1 x116 -1 x32 -1 x46 >= -1 ;
-1 x103 +1 x31 >= 0 ;
-1 x103 +1 x47 >= 0 ;
+1 x103 -1 x31 -1 x47 >= -1 ;
-1 x90 +1 x30 >= 0 ;
-1 x90 +1 x48 >= 0 ;
+1 x90 -1 x30 -1 x48 >= -1 ;
-1 x77 +1 x29 >= 0 ;
-1 x77 +1 x49 >= 0 ;
+1 x77 -1 x29 -1 x49 >= -1 ;
-1 x743 +1 x21 >= 0 ;
-1 x743 +1 x1 >= 0 ;
+1 x743 -1 x21 -1 x1 >= -1 ;
-1 x730 +1 x20 >= 0 ;
-1 x730 +1 x2 >= 0 ;
+1 x730 -1 x20 -1 x2 >= -1 ;
-1 x717 +1 x19 >= 0 ;
-1 x717 +1 x3 >= 0 ;
+1 x717 -1 x19 -1 x3 >= -1 ;
-1 x704 +1 x18 >= 0 ;
-1 x704 +1 x4 >= 0 ;
+1 x704 -1 x18 -1 x4 >= -1 ;
-1 x691 +1 x17 >= 0 ;
-1 x691 +1 x5 >= 0 ;
+1 x691 -1 x17 -1 x5 >= -1 ;
-1 x678 +1 x16 >= 0 ;
-1 x678 +1 x6 >= 0 ;
+1 x678 -1 x16 -1 x6 >= -1 ;
-1 x665 +1 x15 >= 0 ;
-1 x665 +1 x7 >= 0 ;
+1 x665 -1 x15 -1 x7 >= -1 ;
-1 x169 +1 x36 >= 0 ;
-1 x169 +1 x43 >= 0 ;
+1 x169 -1 x36 -1 x43 >= -1 ;
-1 x156 +1 x35 >= 0 ;
-1 x156 +1 x44 >= 0 ;
+1 x156 -1 x35 -1 x44 >= -1 ;
-1 x143 +1 x34 >= 0 ;
-1 x143 +1 x45 >= 0 ;
+1 x143 -1 x34 -1 x45 >= -1 ;
-1 x130 +1 x33 >= 0 ;
-1 x130 +1 x46 >= 0 ;
+1 x130 -1 x33 -1 x46 >= -1 ;
-1 x117 +1 x32 >= 0 ;
-1 x117 +1 x47 >= 0 ;
+1 x117 -1 x32 -1 x47 >= -1 ;
-1 x104 +1 x31 >= 0 ;
-1 x104 +1 x48 >= 0 ;
+1 x104 -1 x31 -1 x48 >= -1 ;
-1 x91 +1 x30 >= 0 ;
-1 x91 +1 x49 >= 0 ;
+1 x91 -1 x30 -1 x49 >= -1 ;
-1 x78 +1 x29 >= 0 ;
-1 x78 +1 x50 >= 0 ;
+1 x78 -1 x29 -1 x50 >= -1 ;
-1 x757 +1 x22 >= 0 ;
-1 x757 +1 x1 >= 0 ;
+1 x757 -1 x22 -1 x1 >= -1 ;
-1 x744 +1 x21 >= 0 ;
-1 x744 +1 x2 >= 0 ;
+1 x744 -1 x21 -1 x2 >= -1 ;
-1 x731 +1 x20 >= 0 ;
-1 x731 +1 x3 >= 0 ;
+1 x731 -1 x20 -1 x3 >= -1 ;
-1 x718 +1 x19 >= 0 ;
-1 x718 +1 x4 >= 0 ;
+1 x718 -1 x19 -1 x4 >= -1 ;
-1 x705 +1 x18 >= 0 ;
-1 x705 +1 x5 >= 0 ;
+1 x705 -1 x18 -1 x5 >= -1 ;
-1 x692 +1 x17 >= 0 ;
-1 x692 +1 x6 >= 0 ;
+1 x692 -1 x17 -1 x6 >= -1 ;
-1 x679 +1 x16 >= 0 ;
-1 x679 +1 x7 >= 0 ;
+1 x679 -1 x16 -1 x7 >= -1 ;
-1 x666 +1 x15 >= 0 ;
-1 x666 +1 x8 >= 0 ;
+1 x666 -1 x15 -1 x8 >= -1 ;
-1 x183 +1 x37 >= 0 ;
-1 x183 +1 x43 >= 0 ;
+1 x183 -1 x37 -1 x43 >= -1 ;
-1 x170 +1 x36 >= 0 ;
-1 x170 +1 x44 >= 0 ;
+1 x170 -1 x36 -1 x44 >= -1 ;
-1 x157 +1 x35 >= 0 ;
-1 x157 +1 x45 >= 0 ;
+1 x157 -1 x35 -1 x45 >= -1 ;
-1 x144 +1 x34 >= 0 ;
-1 x144 +1 x46 >= 0 ;
+1 x144 -1 x34 -1 x46 >= -1 ;
-1 x131 +1 x33 >= 0 ;
-1 x131 +1 x47 >= 0 ;
+1 x131 -1 x33 -1 x47 >= -1 ;
-1 x118 +1 x32 >= 0 ;
-1 x118 +1 x48 >= 0 ;
+1 x118 -1 x32 -1 x48 >= -1 ;
-1 x105 +1 x31 >= 0 ;
-1 x105 +1 x49 >= 0 ;
+1 x105 -1 x31 -1 x49 >= -1 ;
-1 x92 +1 x30 >= 0 ;
-1 x92 +1 x50 >= 0 ;
+1 x92 -1 x30 -1 x50 >= -1 ;
-1 x79 +1 x29 >= 0 ;
-1 x79 +1 x51 >= 0 ;
+1 x79 -1 x29 -1 x51 >= -1 ;
-1 x771 +1 x23 >= 0 ;
-1 x771 +1 x1 >= 0 ;
+1 x771 -1 x23 -1 x1 >= -1 ;
-1 x758 +1 x22 >= 0 ;
-1 x758 +1 x2 >= 0 ;
+1 x758 -1 x22 -1 x2 >= -1 ;
-1 x745 +1 x21 >= 0 ;
-1 x745 +1 x3 >= 0 ;
+1 x745 -1 x21 -1 x3 >= -1 ;
-1 x732 +1 x20 >= 0 ;
-1 x732 +1 x4 >= 0 ;
+1 x732 -1 x20 -1 x4 >= -1 ;
-1 x719 +1 x19 >= 0 ;
-1 x719 +1 x5 >= 0 ;
+1 x719 -1 x19 -1 x5 >= -1 ;
-1 x706 +1 x18 >= 0 ;
-1 x706 +1 x6 >= 0 ;
+1 x706 -1 x18 -1 x6 >= -1 ;
-1 x693 +1 x17 >= 0 ;
-1 x693 +1 x7 >= 0 ;
+1 x693 -1 x17 -1 x7 >= -1 ;
-1 x680 +1 x16 >= 0 ;
-1 x680 +1 x8 >= 0 ;
+1 x680 -1 x16 -1 x8 >= -1 ;
-1 x667 +1 x15 >= 0 ;
-1 x667 +1 x9 >= 0 ;
+1 x667 -1 x15 -1 x9 >= -1 ;
-1 x197 +1 x38 >= 0 ;
-1 x197 +1 x43 >= 0 ;
+1 x197 -1 x38 -1 x43 >= -1 ;
-1 x184 +1 x37 >= 0 ;
-1 x184 +1 x44 >= 0 ;
+1 x184 -1 x37 -1 x44 >= -1 ;
-1 x171 +1 x36 >= 0 ;
-1 x171 +1 x45 >= 0 ;
+1 x171 -1 x36 -1 x45 >= -1 ;
-1 x158 +1 x35 >= 0 ;
-1 x158 +1 x46 >= 0 ;
+1 x158 -1 x35 -1 x46 >= -1 ;
-1 x145 +1 x34 >= 0 ;
-1 x145 +1 x47 >= 0 ;
+1 x145 -1 x34 -1 x47 >= -1 ;
-1 x132 +1 x33 >= 0 ;
-1 x132 +1 x48 >= 0 ;
+1 x132 -1 x33 -1 x48 >= -1 ;
-1 x119 +1 x32 >= 0 ;
-1 x119 +1 x49 >= 0 ;
+1 x119 -1 x32 -1 x49 >= -1 ;
-1 x106 +1 x31 >= 0 ;
-1 x106 +1 x50 >= 0 ;
+1 x106 -1 x31 -1 x50 >= -1 ;
-1 x93 +1 x30 >= 0 ;
-1 x93 +1 x51 >= 0 ;
+1 x93 -1 x30 -1 x51 >= -1 ;
-1 x80 +1 x29 >= 0 ;
-1 x80 +1 x52 >= 0 ;
+1 x80 -1 x29 -1 x52 >= -1 ;
-1 x785 +1 x24 >= 0 ;
-1 x785 +1 x1 >= 0 ;
+1 x785 -1 x24 -1 x1 >= -1 ;
-1 x772 +1 x23 >= 0 ;
-1 x772 +1 x2 >= 0 ;
+1 x772 -1 x23 -1 x2 >= -1 ;
-1 x759 +1 x22 >= 0 ;
-1 x759 +1 x3 >= 0 ;
+1 x759 -1 x22 -1 x3 >= -1 ;
-1 x746 +1 x21 >= 0 ;
-1 x746 +1 x4 >= 0 ;
+1 x746 -1 x21 -1 x4 >= -1 ;
-1 x733 +1 x20 >= 0 ;
-1 x733 +1 x5 >= 0 ;
+1 x733 -1 x20 -1 x5 >= -1 ;
-1 x720 +1 x19 >= 0 ;
-1 x720 +1 x6 >= 0 ;
+1 x720 -1 x19 -1 x6 >= -1 ;
-1 x707 +1 x18 >= 0 ;
-1 x707 +1 x7 >= 0 ;
+1 x707 -1 x18 -1 x7 >= -1 ;
-1 x694 +1 x17 >= 0 ;
-1 x694 +1 x8 >= 0 ;
+1 x694 -1 x17 -1 x8 >= -1 ;
-1 x681 +1 x16 >= 0 ;
-1 x681 +1 x9 >= 0 ;
+1 x681 -1 x16 -1 x9 >= -1 ;
-1 x668 +1 x15 >= 0 ;
-1 x668 +1 x10 >= 0 ;
+1 x668 -1 x15 -1 x10 >= -1 ;
-1 x211 +1 x39 >= 0 ;
-1 x211 +1 x43 >= 0 ;
+1 x211 -1 x39 -1 x43 >= -1 ;
-1 x198 +1 x38 >= 0 ;
-1 x198 +1 x44 >= 0 ;
+1 x198 -1 x38 -1 x44 >= -1 ;
-1 x185 +1 x37 >= 0 ;
-1 x185 +1 x45 >= 0 ;
+1 x185 -1 x37 -1 x45 >= -1 ;
-1 x172 +1 x36 >= 0 ;
-1 x172 +1 x46 >= 0 ;
+1 x172 -1 x36 -1 x46 >= -1 ;
-1 x159 +1 x35 >= 0 ;
-1 x159 +1 x47 >= 0 ;
+1 x159 -1 x35 -1 x47 >= -1 ;
-1 x146 +1 x34 >= 0 ;
-1 x146 +1 x48 >= 0 ;
+1 x146 -1 x34 -1 x48 >= -1 ;
-1 x133 +1 x33 >= 0 ;
-1 x133 +1 x49 >= 0 ;
+1 x133 -1 x33 -1 x49 >= -1 ;
-1 x120 +1 x32 >= 0 ;
-1 x120 +1 x50 >= 0 ;
+1 x120 -1 x32 -1 x50 >= -1 ;
-1 x107 +1 x31 >= 0 ;
-1 x107 +1 x51 >= 0 ;
+1 x107 -1 x31 -1 x51 >= -1 ;
-1 x94 +1 x30 >= 0 ;
-1 x94 +1 x52 >= 0 ;
+1 x94 -1 x30 -1 x52 >= -1 ;
-1 x81 +1 x29 >= 0 ;
-1 x81 +1 x53 >= 0 ;
+1 x81 -1 x29 -1 x53 >= -1 ;
-1 x799 +1 x25 >= 0 ;
-1 x799 +1 x1 >= 0 ;
+1 x799 -1 x25 -1 x1 >= -1 ;
-1 x786 +1 x24 >= 0 ;
-1 x786 +1 x2 >= 0 ;
+1 x786 -1 x24 -1 x2 >= -1 ;
-1 x773 +1 x23 >= 0 ;
-1 x773 +1 x3 >= 0 ;
+1 x773 -1 x23 -1 x3 >= -1 ;
-1 x760 +1 x22 >= 0 ;
-1 x760 +1 x4 >= 0 ;
+1 x760 -1 x22 -1 x4 >= -1 ;
-1 x747 +1 x21 >= 0 ;
-1 x747 +1 x5 >= 0 ;
+1 x747 -1 x21 -1 x5 >= -1 ;
-1 x734 +1 x20 >= 0 ;
-1 x734 +1 x6 >= 0 ;
+1 x734 -1 x20 -1 x6 >= -1 ;
-1 x721 +1 x19 >= 0 ;
-1 x721 +1 x7 >= 0 ;
+1 x721 -1 x19 -1 x7 >= -1 ;
-1 x708 +1 x18 >= 0 ;
-1 x708 +1 x8 >= 0 ;
+1 x708 -1 x18 -1 x8 >= -1 ;
-1 x695 +1 x17 >= 0 ;
-1 x695 +1 x9 >= 0 ;
+1 x695 -1 x17 -1 x9 >= -1 ;
-1 x682 +1 x16 >= 0 ;
-1 x682 +1 x10 >= 0 ;
+1 x682 -1 x16 -1 x10 >= -1 ;
-1 x669 +1 x15 >= 0 ;
-1 x669 +1 x11 >= 0 ;
+1 x669 -1 x15 -1 x11 >= -1 ;
-1 x225 +1 x40 >= 0 ;
-1 x225 +1 x43 >= 0 ;
+1 x225 -1 x40 -1 x43 >= -1 ;
-1 x212 +1 x39 >= 0 ;
-1 x212 +1 x44 >= 0 ;
+1 x212 -1 x39 -1 x44 >= -1 ;
-1 x199 +1 x38 >= 0 ;
-1 x199 +1 x45 >= 0 ;
+1 x199 -1 x38 -1 x45 >= -1 ;
-1 x186 +1 x37 >= 0 ;
-1 x186 +1 x46 >= 0 ;
+1 x186 -1 x37 -1 x46 >= -1 ;
-1 x173 +1 x36 >= 0 ;
-1 x173 +1 x47 >= 0 ;
+1 x173 -1 x36 -1 x47 >= -1 ;
-1 x160 +1 x35 >= 0 ;
-1 x160 +1 x48 >= 0 ;
+1 x160 -1 x35 -1 x48 >= -1 ;
-1 x147 +1 x34 >= 0 ;
-1 x147 +1 x49 >= 0 ;
+1 x147 -1 x34 -1 x49 >= -1 ;
-1 x134 +1 x33 >= 0 ;
-1 x134 +1 x50 >= 0 ;
+1 x134 -1 x33 -1 x50 >= -1 ;
-1 x121 +1 x32 >= 0 ;
-1 x121 +1 x51 >= 0 ;
+1 x121 -1 x32 -1 x51 >= -1 ;
-1 x108 +1 x31 >= 0 ;
-1 x108 +1 x52 >= 0 ;
+1 x108 -1 x31 -1 x52 >= -1 ;
-1 x95 +1 x30 >= 0 ;
-1 x95 +1 x53 >= 0 ;
+1 x95 -1 x30 -1 x53 >= -1 ;
-1 x82 +1 x29 >= 0 ;
-1 x82 +1 x54 >= 0 ;
+1 x82 -1 x29 -1 x54 >= -1 ;
-1 x813 +1 x26 >= 0 ;
-1 x813 +1 x1 >= 0 ;
+1 x813 -1 x26 -1 x1 >= -1 ;
-1 x800 +1 x25 >= 0 ;
-1 x800 +1 x2 >= 0 ;
+1 x800 -1 x25 -1 x2 >= -1 ;
-1 x787 +1 x24 >= 0 ;
-1 x787 +1 x3 >= 0 ;
+1 x787 -1 x24 -1 x3 >= -1 ;
-1 x774 +1 x23 >= 0 ;
-1 x774 +1 x4 >= 0 ;
+1 x774 -1 x23 -1 x4 >= -1 ;
-1 x761 +1 x22 >= 0 ;
-1 x761 +1 x5 >= 0 ;
+1 x761 -1 x22 -1 x5 >= -1 ;
-1 x748 +1 x21 >= 0 ;
-1 x748 +1 x6 >= 0 ;
+1 x748 -1 x21 -1 x6 >= -1 ;
-1 x735 +1 x20 >= 0 ;
-1 x735 +1 x7 >= 0 ;
+1 x735 -1 x20 -1 x7 >= -1 ;
-1 x722 +1 x19 >= 0 ;
-1 x722 +1 x8 >= 0 ;
+1 x722 -1 x19 -1 x8 >= -1 ;
-1 x709 +1 x18 >= 0 ;
-1 x709 +1 x9 >= 0 ;
+1 x709 -1 x18 -1 x9 >= -1 ;
-1 x696 +1 x17 >= 0 ;
-1 x696 +1 x10 >= 0 ;
+1 x696 -1 x17 -1 x10 >= -1 ;
-1 x683 +1 x16 >= 0 ;
-1 x683 +1 x11 >= 0 ;
+1 x683 -1 x16 -1 x11 >= -1 ;
-1 x670 +1 x15 >= 0 ;
-1 x670 +1 x12 >= 0 ;
+1 x670 -1 x15 -1 x12 >= -1 ;
-1 x239 +1 x41 >= 0 ;
-1 x239 +1 x43 >= 0 ;
+1 x239 -1 x41 -1 x43 >= -1 ;
-1 x226 +1 x40 >= 0 ;
-1 x226 +1 x44 >= 0 ;
+1 x226 -1 x40 -1 x44 >= -1 ;
-1 x213 +1 x39 >= 0 ;
-1 x213 +1 x45 >= 0 ;
+1 x213 -1 x39 -1 x45 >= -1 ;
-1 x200 +1 x38 >= 0 ;
-1 x200 +1 x46 >= 0 ;
+1 x200 -1 x38 -1 x46 >= -1 ;
-1 x187 +1 x37 >= 0 ;
-1 x187 +1 x47 >= 0 ;
+1 x187 -1 x37 -1 x47 >= -1 ;
-1 x174 +1 x36 >= 0 ;
-1 x174 +1 x48 >= 0 ;
+1 x174 -1 x36 -1 x48 >= -1 ;
-1 x161 +1 x35 >= 0 ;
-1 x161 +1 x49 >= 0 ;
+1 x161 -1 x35 -1 x49 >= -1 ;
-1 x148 +1 x34 >= 0 ;
-1 x148 +1 x50 >= 0 ;
+1 x148 -1 x34 -1 x50 >= -1 ;
-1 x135 +1 x33 >= 0 ;
-1 x135 +1 x51 >= 0 ;
+1 x135 -1 x33 -1 x51 >= -1 ;
-1 x122 +1 x32 >= 0 ;
-1 x122 +1 x52 >= 0 ;
+1 x122 -1 x32 -1 x52 >= -1 ;
-1 x109 +1 x31 >= 0 ;
-1 x109 +1 x53 >= 0 ;
+1 x109 -1 x31 -1 x53 >= -1 ;
-1 x96 +1 x30 >= 0 ;
-1 x96 +1 x54 >= 0 ;
+1 x96 -1 x30 -1 x54 >= -1 ;
-1 x83 +1 x29 >= 0 ;
-1 x83 +1 x55 >= 0 ;
+1 x83 -1 x29 -1 x55 >= -1 ;
-1 x827 +1 x27 >= 0 ;
-1 x827 +1 x1 >= 0 ;
+1 x827 -1 x27 -1 x1 >= -1 ;
-1 x814 +1 x26 >= 0 ;
-1 x814 +1 x2 >= 0 ;
+1 x814 -1 x26 -1 x2 >= -1 ;
-1 x801 +1 x25 >= 0 ;
-1 x801 +1 x3 >= 0 ;
+1 x801 -1 x25 -1 x3 >= -1 ;
-1 x788 +1 x24 >= 0 ;
-1 x788 +1 x4 >= 0 ;
+1 x788 -1 x24 -1 x4 >= -1 ;
-1 x775 +1 x23 >= 0 ;
-1 x775 +1 x5 >= 0 ;
+1 x775 -1 x23 -1 x5 >= -1 ;
-1 x762 +1 x22 >= 0 ;
-1 x762 +1 x6 >= 0 ;
+1 x762 -1 x22 -1 x6 >= -1 ;
-1 x749 +1 x21 >= 0 ;
-1 x749 +1 x7 >= 0 ;
+1 x749 -1 x21 -1 x7 >= -1 ;
-1 x736 +1 x20 >= 0 ;
-1 x736 +1 x8 >= 0 ;
+1 x736 -1 x20 -1 x8 >= -1 ;
-1 x723 +1 x19 >= 0 ;
-1 x723 +1 x9 >= 0 ;
+1 x723 -1 x19 -1 x9 >= -1 ;
-1 x710 +1 x18 >= 0 ;
-1 x710 +1 x10 >= 0 ;
+1 x710 -1 x18 -1 x10 >= -1 ;
-1 x697 +1 x17 >= 0 ;
-1 x697 +1 x11 >= 0 ;
+1 x697 -1 x17 -1 x11 >= -1 ;
-1 x684 +1 x16 >= 0 ;
-1 x684 +1 x12 >= 0 ;
+1 x684 -1 x16 -1 x12 >= -1 ;
-1 x671 +1 x15 >= 0 ;
-1 x671 +1 x13 >= 0 ;
+1 x671 -1 x15 -1 x13 >= -1 ;
-1 x253 +1 x42 >= 0 ;
-1 x253 +1 x43 >= 0 ;
+1 x253 -1 x42 -1 x43 >= -1 ;
-1 x240 +1 x41 >= 0 ;
-1 x240 +1 x44 >= 0 ;
+1 x240 -1 x41 -1 x44 >= -1 ;
-1 x227 +1 x40 >= 0 ;
-1 x227 +1 x45 >= 0 ;
+1 x227 -1 x40 -1 x45 >= -1 ;
-1 x214 +1 x39 >= 0 ;
-1 x214 +1 x46 >= 0 ;
+1 x214 -1 x39 -1 x46 >= -1 ;
-1 x201 +1 x38 >= 0 ;
-1 x201 +1 x47 >= 0 ;
+1 x201 -1 x38 -1 x47 >= -1 ;
-1 x188 +1 x37 >= 0 ;
-1 x188 +1 x48 >= 0 ;
+1 x188 -1 x37 -1 x48 >= -1 ;
-1 x175 +1 x36 >= 0 ;
-1 x175 +1 x49 >= 0 ;
+1 x175 -1 x36 -1 x49 >= -1 ;
-1 x162 +1 x35 >= 0 ;
-1 x162 +1 x50 >= 0 ;
+1 x162 -1 x35 -1 x50 >= -1 ;
-1 x149 +1 x34 >= 0 ;
-1 x149 +1 x51 >= 0 ;
+1 x149 -1 x34 -1 x51 >= -1 ;
-1 x136 +1 x33 >= 0 ;
-1 x136 +1 x52 >= 0 ;
+1 x136 -1 x33 -1 x52 >= -1 ;
-1 x123 +1 x32 >= 0 ;
-1 x123 +1 x53 >= 0 ;
+1 x123 -1 x32 -1 x53 >= -1 ;
-1 x110 +1 x31 >= 0 ;
-1 x110 +1 x54 >= 0 ;
+1 x110 -1 x31 -1 x54 >= -1 ;
-1 x97 +1 x30 >= 0 ;
-1 x97 +1 x55 >= 0 ;
+1 x97 -1 x30 -1 x55 >= -1 ;
-1 x84 +1 x29 >= 0 ;
-1 x84 +1 x56 >= 0 ;
+1 x84 -1 x29 -1 x56 >= -1 ;
-1 x841 +1 x28 >= 0 ;
-1 x841 +1 x1 >= 0 ;
+1 x841 -1 x28 -1 x1 >= -1 ;
-1 x828 +1 x27 >= 0 ;
-1 x828 +1 x2 >= 0 ;
+1 x828 -1 x27 -1 x2 >= -1 ;
-1 x815 +1 x26 >= 0 ;
-1 x815 +1 x3 >= 0 ;
+1 x815 -1 x26 -1 x3 >= -1 ;
-1 x802 +1 x25 >= 0 ;
-1 x802 +1 x4 >= 0 ;
+1 x802 -1 x25 -1 x4 >= -1 ;
-1 x789 +1 x24 >= 0 ;
-1 x789 +1 x5 >= 0 ;
+1 x789 -1 x24 -1 x5 >= -1 ;
-1 x776 +1 x23 >= 0 ;
-1 x776 +1 x6 >= 0 ;
+1 x776 -1 x23 -1 x6 >= -1 ;
-1 x763 +1 x22 >= 0 ;
-1 x763 +1 x7 >= 0 ;
+1 x763 -1 x22 -1 x7 >= -1 ;
-1 x750 +1 x21 >= 0 ;
-1 x750 +1 x8 >= 0 ;
+1 x750 -1 x21 -1 x8 >= -1 ;
-1 x737 +1 x20 >= 0 ;
-1 x737 +1 x9 >= 0 ;
+1 x737 -1 x20 -1 x9 >= -1 ;
-1 x724 +1 x19 >= 0 ;
-1 x724 +1 x10 >= 0 ;
+1 x724 -1 x19 -1 x10 >= -1 ;
-1 x711 +1 x18 >= 0 ;
-1 x711 +1 x11 >= 0 ;
+1 x711 -1 x18 -1 x11 >= -1 ;
-1 x698 +1 x17 >= 0 ;
-1 x698 +1 x12 >= 0 ;
+1 x698 -1 x17 -1 x12 >= -1 ;
-1 x685 +1 x16 >= 0 ;
-1 x685 +1 x13 >= 0 ;
+1 x685 -1 x16 -1 x13 >= -1 ;
-1 x672 +1 x15 >= 0 ;
-1 x672 +1 x14 >= 0 ;
+1 x672 -1 x15 -1 x14 >= -1 ;
-1 x254 +1 x42 >= 0 ;
-1 x254 +1 x44 >= 0 ;
+1 x254 -1 x42 -1 x44 >= -1 ;
-1 x241 +1 x41 >= 0 ;
-1 x241 +1 x45 >= 0 ;
+1 x241 -1 x41 -1 x45 >= -1 ;
-1 x228 +1 x40 >= 0 ;
-1 x228 +1 x46 >= 0 ;
+1 x228 -1 x40 -1 x46 >= -1 ;
-1 x215 +1 x39 >= 0 ;
-1 x215 +1 x47 >= 0 ;
+1 x215 -1 x39 -1 x47 >= -1 ;
-1 x202 +1 x38 >= 0 ;
-1 x202 +1 x48 >= 0 ;
+1 x202 -1 x38 -1 x48 >= -1 ;
-1 x189 +1 x37 >= 0 ;
-1 x189 +1 x49 >= 0 ;
+1 x189 -1 x37 -1 x49 >= -1 ;
-1 x176 +1 x36 >= 0 ;
-1 x176 +1 x50 >= 0 ;
+1 x176 -1 x36 -1 x50 >= -1 ;
-1 x163 +1 x35 >= 0 ;
-1 x163 +1 x51 >= 0 ;
+1 x163 -1 x35 -1 x51 >= -1 ;
-1 x150 +1 x34 >= 0 ;
-1 x150 +1 x52 >= 0 ;
+1 x150 -1 x34 -1 x52 >= -1 ;
-1 x137 +1 x33 >= 0 ;
-1 x137 +1 x53 >= 0 ;
+1 x137 -1 x33 -1 x53 >= -1 ;
-1 x124 +1 x32 >= 0 ;
-1 x124 +1 x54 >= 0 ;
+1 x124 -1 x32 -1 x54 >= -1 ;
-1 x111 +1 x31 >= 0 ;
-1 x111 +1 x55 >= 0 ;
+1 x111 -1 x31 -1 x55 >= -1 ;
-1 x98 +1 x30 >= 0 ;
-1 x98 +1 x56 >= 0 ;
+1 x98 -1 x30 -1 x56 >= -1 ;
-1 x842 +1 x28 >= 0 ;
-1 x842 +1 x2 >= 0 ;
+1 x842 -1 x28 -1 x2 >= -1 ;
-1 x829 +1 x27 >= 0 ;
-1 x829 +1 x3 >= 0 ;
+1 x829 -1 x27 -1 x3 >= -1 ;
-1 x816 +1 x26 >= 0 ;
-1 x816 +1 x4 >= 0 ;
+1 x816 -1 x26 -1 x4 >= -1 ;
-1 x803 +1 x25 >= 0 ;
-1 x803 +1 x5 >= 0 ;
+1 x803 -1 x25 -1 x5 >= -1 ;
-1 x790 +1 x24 >= 0 ;
-1 x790 +1 x6 >= 0 ;
+1 x790 -1 x24 -1 x6 >= -1 ;
-1 x777 +1 x23 >= 0 ;
-1 x777 +1 x7 >= 0 ;
+1 x777 -1 x23 -1 x7 >= -1 ;
-1 x764 +1 x22 >= 0 ;
-1 x764 +1 x8 >= 0 ;
+1 x764 -1 x22 -1 x8 >= -1 ;
-1 x751 +1 x21 >= 0 ;
-1 x751 +1 x9 >= 0 ;
+1 x751 -1 x21 -1 x9 >= -1 ;
-1 x738 +1 x20 >= 0 ;
-1 x738 +1 x10 >= 0 ;
+1 x738 -1 x20 -1 x10 >= -1 ;
-1 x725 +1 x19 >= 0 ;
-1 x725 +1 x11 >= 0 ;
+1 x725 -1 x19 -1 x11 >= -1 ;
-1 x712 +1 x18 >= 0 ;
-1 x712 +1 x12 >= 0 ;
+1 x712 -1 x18 -1 x12 >= -1 ;
-1 x699 +1 x17 >= 0 ;
-1 x699 +1 x13 >= 0 ;
+1 x699 -1 x17 -1 x13 >= -1 ;
-1 x686 +1 x16 >= 0 ;
-1 x686 +1 x14 >= 0 ;
+1 x686 -1 x16 -1 x14 >= -1 ;
-1 x255 +1 x42 >= 0 ;
-1 x255 +1 x45 >= 0 ;
+1 x255 -1 x42 -1 x45 >= -1 ;
-1 x242 +1 x41 >= 0 ;
-1 x242 +1 x46 >= 0 ;
+1 x242 -1 x41 -1 x46 >= -1 ;
-1 x229 +1 x40 >= 0 ;
-1 x229 +1 x47 >= 0 ;
+1 x229 -1 x40 -1 x47 >= -1 ;
-1 x216 +1 x39 >= 0 ;
-1 x216 +1 x48 >= 0 ;
+1 x216 -1 x39 -1 x48 >= -1 ;
-1 x203 +1 x38 >= 0 ;
-1 x203 +1 x49 >= 0 ;
+1 x203 -1 x38 -1 x49 >= -1 ;
-1 x190 +1 x37 >= 0 ;
-1 x190 +1 x50 >= 0 ;
+1 x190 -1 x37 -1 x50 >= -1 ;
-1 x177 +1 x36 >= 0 ;
-1 x177 +1 x51 >= 0 ;
+1 x177 -1 x36 -1 x51 >= -1 ;
-1 x164 +1 x35 >= 0 ;
-1 x164 +1 x52 >= 0 ;
+1 x164 -1 x35 -1 x52 >= -1 ;
-1 x151 +1 x34 >= 0 ;
-1 x151 +1 x53 >= 0 ;
+1 x151 -1 x34 -1 x53 >= -1 ;
-1 x138 +1 x33 >= 0 ;
-1 x138 +1 x54 >= 0 ;
+1 x138 -1 x33 -1 x54 >= -1 ;
-1 x125 +1 x32 >= 0 ;
-1 x125 +1 x55 >= 0 ;
+1 x125 -1 x32 -1 x55 >= -1 ;
-1 x112 +1 x31 >= 0 ;
-1 x112 +1 x56 >= 0 ;
+1 x112 -1 x31 -1 x56 >= -1 ;
-1 x843 +1 x28 >= 0 ;
-1 x843 +1 x3 >= 0 ;
+1 x843 -1 x28 -1 x3 >= -1 ;
-1 x830 +1 x27 >= 0 ;
-1 x830 +1 x4 >= 0 ;
+1 x830 -1 x27 -1 x4 >= -1 ;
-1 x817 +1 x26 >= 0 ;
-1 x817 +1 x5 >= 0 ;
+1 x817 -1 x26 -1 x5 >= -1 ;
-1 x804 +1 x25 >= 0 ;
-1 x804 +1 x6 >= 0 ;
+1 x804 -1 x25 -1 x6 >= -1 ;
-1 x791 +1 x24 >= 0 ;
-1 x791 +1 x7 >= 0 ;
+1 x791 -1 x24 -1 x7 >= -1 ;
-1 x778 +1 x23 >= 0 ;
-1 x778 +1 x8 >= 0 ;
+1 x778 -1 x23 -1 x8 >= -1 ;
-1 x765 +1 x22 >= 0 ;
-1 x765 +1 x9 >= 0 ;
+1 x765 -1 x22 -1 x9 >= -1 ;
-1 x752 +1 x21 >= 0 ;
-1 x752 +1 x10 >= 0 ;
+1 x752 -1 x21 -1 x10 >= -1 ;
-1 x739 +1 x20 >= 0 ;
-1 x739 +1 x11 >= 0 ;
+1 x739 -1 x20 -1 x11 >= -1 ;
-1 x726 +1 x19 >= 0 ;
-1 x726 +1 x12 >= 0 ;
+1 x726 -1 x19 -1 x12 >= -1 ;
-1 x713 +1 x18 >= 0 ;
-1 x713 +1 x13 >= 0 ;
+1 x713 -1 x18 -1 x13 >= -1 ;
-1 x700 +1 x17 >= 0 ;
-1 x700 +1 x14 >= 0 ;
+1 x700 -1 x17 -1 x14 >= -1 ;
-1 x256 +1 x42 >= 0 ;
-1 x256 +1 x46 >= 0 ;
+1 x256 -1 x42 -1 x46 >= -1 ;
-1 x243 +1 x41 >= 0 ;
-1 x243 +1 x47 >= 0 ;
+1 x243 -1 x41 -1 x47 >= -1 ;
-1 x230 +1 x40 >= 0 ;
-1 x230 +1 x48 >= 0 ;
+1 x230 -1 x40 -1 x48 >= -1 ;
-1 x217 +1 x39 >= 0 ;
-1 x217 +1 x49 >= 0 ;
+1 x217 -1 x39 -1 x49 >= -1 ;
-1 x204 +1 x38 >= 0 ;
-1 x204 +1 x50 >= 0 ;
+1 x204 -1 x38 -1 x50 >= -1 ;
-1 x191 +1 x37 >= 0 ;
-1 x191 +1 x51 >= 0 ;
+1 x191 -1 x37 -1 x51 >= -1 ;
-1 x178 +1 x36 >= 0 ;
-1 x178 +1 x52 >= 0 ;
+1 x178 -1 x36 -1 x52 >= -1 ;
-1 x165 +1 x35 >= 0 ;
-1 x165 +1 x53 >= 0 ;
+1 x165 -1 x35 -1 x53 >= -1 ;
-1 x152 +1 x34 >= 0 ;
-1 x152 +1 x54 >= 0 ;
+1 x152 -1 x34 -1 x54 >= -1 ;
-1 x139 +1 x33 >= 0 ;
-1 x139 +1 x55 >= 0 ;
+1 x139 -1 x33 -1 x55 >= -1 ;
-1 x126 +1 x32 >= 0 ;
-1 x126 +1 x56 >= 0 ;
+1 x126 -1 x32 -1 x56 >= -1 ;
-1 x844 +1 x28 >= 0 ;
-1 x844 +1 x4 >= 0 ;
+1 x844 -1 x28 -1 x4 >= -1 ;
-1 x831 +1 x27 >= 0 ;
-1 x831 +1 x5 >= 0 ;
+1 x831 -1 x27 -1 x5 >= -1 ;
-1 x818 +1 x26 >= 0 ;
-1 x818 +1 x6 >= 0 ;
+1 x818 -1 x26 -1 x6 >= -1 ;
-1 x805 +1 x25 >= 0 ;
-1 x805 +1 x7 >= 0 ;
+1 x805 -1 x25 -1 x7 >= -1 ;
-1 x792 +1 x24 >= 0 ;
-1 x792 +1 x8 >= 0 ;
+1 x792 -1 x24 -1 x8 >= -1 ;
-1 x779 +1 x23 >= 0 ;
-1 x779 +1 x9 >= 0 ;
+1 x779 -1 x23 -1 x9 >= -1 ;
-1 x766 +1 x22 >= 0 ;
-1 x766 +1 x10 >= 0 ;
+1 x766 -1 x22 -1 x10 >= -1 ;
-1 x753 +1 x21 >= 0 ;
-1 x753 +1 x11 >= 0 ;
+1 x753 -1 x21 -1 x11 >= -1 ;
-1 x740 +1 x20 >= 0 ;
-1 x740 +1 x12 >= 0 ;
+1 x740 -1 x20 -1 x12 >= -1 ;
-1 x727 +1 x19 >= 0 ;
-1 x727 +1 x13 >= 0 ;
+1 x727 -1 x19 -1 x13 >= -1 ;
-1 x714 +1 x18 >= 0 ;
-1 x714 +1 x14 >= 0 ;
+1 x714 -1 x18 -1 x14 >= -1 ;
-1 x257 +1 x42 >= 0 ;
-1 x257 +1 x47 >= 0 ;
+1 x257 -1 x42 -1 x47 >= -1 ;
-1 x244 +1 x41 >= 0 ;
-1 x244 +1 x48 >= 0 ;
+1 x244 -1 x41 -1 x48 >= -1 ;
-1 x231 +1 x40 >= 0 ;
-1 x231 +1 x49 >= 0 ;
+1 x231 -1 x40 -1 x49 >= -1 ;
-1 x218 +1 x39 >= 0 ;
-1 x218 +1 x50 >= 0 ;
+1 x218 -1 x39 -1 x50 >= -1 ;
-1 x205 +1 x38 >= 0 ;
-1 x205 +1 x51 >= 0 ;
+1 x205 -1 x38 -1 x51 >= -1 ;
-1 x192 +1 x37 >= 0 ;
-1 x192 +1 x52 >= 0 ;
+1 x192 -1 x37 -1 x52 >= -1 ;
-1 x179 +1 x36 >= 0 ;
-1 x179 +1 x53 >= 0 ;
+1 x179 -1 x36 -1 x53 >= -1 ;
-1 x166 +1 x35 >= 0 ;
-1 x166 +1 x54 >= 0 ;
+1 x166 -1 x35 -1 x54 >= -1 ;
-1 x153 +1 x34 >= 0 ;
-1 x153 +1 x55 >= 0 ;
+1 x153 -1 x34 -1 x55 >= -1 ;
-1 x140 +1 x33 >= 0 ;
-1 x140 +1 x56 >= 0 ;
+1 x140 -1 x33 -1 x56 >= -1 ;
-1 x845 +1 x28 >= 0 ;
-1 x845 +1 x5 >= 0 ;
+1 x845 -1 x28 -1 x5 >= -1 ;
-1 x832 +1 x27 >= 0 ;
-1 x832 +1 x6 >= 0 ;
+1 x832 -1 x27 -1 x6 >= -1 ;
-1 x819 +1 x26 >= 0 ;
-1 x819 +1 x7 >= 0 ;
+1 x819 -1 x26 -1 x7 >= -1 ;
-1 x806 +1 x25 >= 0 ;
-1 x806 +1 x8 >= 0 ;
+1 x806 -1 x25 -1 x8 >= -1 ;
-1 x793 +1 x24 >= 0 ;
-1 x793 +1 x9 >= 0 ;
+1 x793 -1 x24 -1 x9 >= -1 ;
-1 x780 +1 x23 >= 0 ;
-1 x780 +1 x10 >= 0 ;
+1 x780 -1 x23 -1 x10 >= -1 ;
-1 x767 +1 x22 >= 0 ;
-1 x767 +1 x11 >= 0 ;
+1 x767 -1 x22 -1 x11 >= -1 ;
-1 x754 +1 x21 >= 0 ;
-1 x754 +1 x12 >= 0 ;
+1 x754 -1 x21 -1 x12 >= -1 ;
-1 x741 +1 x20 >= 0 ;
-1 x741 +1 x13 >= 0 ;
+1 x741 -1 x20 -1 x13 >= -1 ;
-1 x728 +1 x19 >= 0 ;
-1 x728 +1 x14 >= 0 ;
+1 x728 -1 x19 -1 x14 >= -1 ;
-1 x258 +1 x42 >= 0 ;
-1 x258 +1 x48 >= 0 ;
+1 x258 -1 x42 -1 x48 >= -1 ;
-1 x245 +1 x41 >= 0 ;
-1 x245 +1 x49 >= 0 ;
+1 x245 -1 x41 -1 x49 >= -1 ;
-1 x232 +1 x40 >= 0 ;
-1 x232 +1 x50 >= 0 ;
+1 x232 -1 x40 -1 x50 >= -1 ;
-1 x219 +1 x39 >= 0 ;
-1 x219 +1 x51 >= 0 ;
+1 x219 -1 x39 -1 x51 >= -1 ;
-1 x206 +1 x38 >= 0 ;
-1 x206 +1 x52 >= 0 ;
+1 x206 -1 x38 -1 x52 >= -1 ;
-1 x193 +1 x37 >= 0 ;
-1 x193 +1 x53 >= 0 ;
+1 x193 -1 x37 -1 x53 >= -1 ;
-1 x180 +1 x36 >= 0 ;
-1 x180 +1 x54 >= 0 ;
+1 x180 -1 x36 -1 x54 >= -1 ;
-1 x167 +1 x35 >= 0 ;
-1 x167 +1 x55 >= 0 ;
+1 x167 -1 x35 -1 x55 >= -1 ;
-1 x154 +1 x34 >= 0 ;
-1 x154 +1 x56 >= 0 ;
+1 x154 -1 x34 -1 x56 >= -1 ;
-1 x846 +1 x28 >= 0 ;
-1 x846 +1 x6 >= 0 ;
+1 x846 -1 x28 -1 x6 >= -1 ;
-1 x833 +1 x27 >= 0 ;
-1 x833 +1 x7 >= 0 ;
+1 x833 -1 x27 -1 x7 >= -1 ;
-1 x820 +1 x26 >= 0 ;
-1 x820 +1 x8 >= 0 ;
+1 x820 -1 x26 -1 x8 >= -1 ;
-1 x807 +1 x25 >= 0 ;
-1 x807 +1 x9 >= 0 ;
+1 x807 -1 x25 -1 x9 >= -1 ;
-1 x794 +1 x24 >= 0 ;
-1 x794 +1 x10 >= 0 ;
+1 x794 -1 x24 -1 x10 >= -1 ;
-1 x781 +1 x23 >= 0 ;
-1 x781 +1 x11 >= 0 ;
+1 x781 -1 x23 -1 x11 >= -1 ;
-1 x768 +1 x22 >= 0 ;
-1 x768 +1 x12 >= 0 ;
+1 x768 -1 x22 -1 x12 >= -1 ;
-1 x755 +1 x21 >= 0 ;
-1 x755 +1 x13 >= 0 ;
+1 x755 -1 x21 -1 x13 >= -1 ;
-1 x742 +1 x20 >= 0 ;
-1 x742 +1 x14 >= 0 ;
+1 x742 -1 x20 -1 x14 >= -1 ;
-1 x259 +1 x42 >= 0 ;
-1 x259 +1 x49 >= 0 ;
+1 x259 -1 x42 -1 x49 >= -1 ;
-1 x246 +1 x41 >= 0 ;
-1 x246 +1 x50 >= 0 ;
+1 x246 -1 x41 -1 x50 >= -1 ;
-1 x233 +1 x40 >= 0 ;
-1 x233 +1 x51 >= 0 ;
+1 x233 -1 x40 -1 x51 >= -1 ;
-1 x220 +1 x39 >= 0 ;
-1 x220 +1 x52 >= 0 ;
+1 x220 -1 x39 -1 x52 >= -1 ;
-1 x207 +1 x38 >= 0 ;
-1 x207 +1 x53 >= 0 ;
+1 x207 -1 x38 -1 x53 >= -1 ;
-1 x194 +1 x37 >= 0 ;
-1 x194 +1 x54 >= 0 ;
+1 x194 -1 x37 -1 x54 >= -1 ;
-1 x181 +1 x36 >= 0 ;
-1 x181 +1 x55 >= 0 ;
+1 x181 -1 x36 -1 x55 >= -1 ;
-1 x168 +1 x35 >= 0 ;
-1 x168 +1 x56 >= 0 ;
+1 x168 -1 x35 -1 x56 >= -1 ;
-1 x847 +1 x28 >= 0 ;
-1 x847 +1 x7 >= 0 ;
+1 x847 -1 x28 -1 x7 >= -1 ;
-1 x834 +1 x27 >= 0 ;
-1 x834 +1 x8 >= 0 ;
+1 x834 -1 x27 -1 x8 >= -1 ;
-1 x821 +1 x26 >= 0 ;
-1 x821 +1 x9 >= 0 ;
+1 x821 -1 x26 -1 x9 >= -1 ;
-1 x808 +1 x25 >= 0 ;
-1 x808 +1 x10 >= 0 ;
+1 x808 -1 x25 -1 x10 >= -1 ;
-1 x795 +1 x24 >= 0 ;
-1 x795 +1 x11 >= 0 ;
+1 x795 -1 x24 -1 x11 >= -1 ;
-1 x782 +1 x23 >= 0 ;
-1 x782 +1 x12 >= 0 ;
+1 x782 -1 x23 -1 x12 >= -1 ;
-1 x769 +1 x22 >= 0 ;
-1 x769 +1 x13 >= 0 ;
+1 x769 -1 x22 -1 x13 >= -1 ;
-1 x756 +1 x21 >= 0 ;
-1 x756 +1 x14 >= 0 ;
+1 x756 -1 x21 -1 x14 >= -1 ;
-1 x260 +1 x42 >= 0 ;
-1 x260 +1 x50 >= 0 ;
+1 x260 -1 x42 -1 x50 >= -1 ;
-1 x247 +1 x41 >= 0 ;
-1 x247 +1 x51 >= 0 ;
+1 x247 -1 x41 -1 x51 >= -1 ;
-1 x234 +1 x40 >= 0 ;
-1 x234 +1 x52 >= 0 ;
+1 x234 -1 x40 -1 x52 >= -1 ;
-1 x221 +1 x39 >= 0 ;
-1 x221 +1 x53 >= 0 ;
+1 x221 -1 x39 -1 x53 >= -1 ;
-1 x208 +1 x38 >= 0 ;
-1 x208 +1 x54 >= 0 ;
+1 x208 -1 x38 -1 x54 >= -1 ;
-1 x195 +1 x37 >= 0 ;
-1 x195 +1 x55 >= 0 ;
+1 x195 -1 x37 -1 x55 >= -1 ;
-1 x182 +1 x36 >= 0 ;
-1 x182 +1 x56 >= 0 ;
+1 x182 -1 x36 -1 x56 >= -1 ;
-1 x848 +1 x28 >= 0 ;
-1 x848 +1 x8 >= 0 ;
+1 x848 -1 x28 -1 x8 >= -1 ;
-1 x835 +1 x27 >= 0 ;
-1 x835 +1 x9 >= 0 ;
+1 x835 -1 x27 -1 x9 >= -1 ;
-1 x822 +1 x26 >= 0 ;
-1 x822 +1 x10 >= 0 ;
+1 x822 -1 x26 -1 x10 >= -1 ;
-1 x809 +1 x25 >= 0 ;
-1 x809 +1 x11 >= 0 ;
+1 x809 -1 x25 -1 x11 >= -1 ;
-1 x796 +1 x24 >= 0 ;
-1 x796 +1 x12 >= 0 ;
+1 x796 -1 x24 -1 x12 >= -1 ;
-1 x783 +1 x23 >= 0 ;
-1 x783 +1 x13 >= 0 ;
+1 x783 -1 x23 -1 x13 >= -1 ;
-1 x770 +1 x22 >= 0 ;
-1 x770 +1 x14 >= 0 ;
+1 x770 -1 x22 -1 x14 >= -1 ;
-1 x261 +1 x42 >= 0 ;
-1 x261 +1 x51 >= 0 ;
+1 x261 -1 x42 -1 x51 >= -1 ;
-1 x248 +1 x41 >= 0 ;
-1 x248 +1 x52 >= 0 ;
+1 x248 -1 x41 -1 x52 >= -1 ;
-1 x235 +1 x40 >= 0 ;
-1 x235 +1 x53 >= 0 ;
+1 x235 -1 x40 -1 x53 >= -1 ;
-1 x222 +1 x39 >= 0 ;
-1 x222 +1 x54 >= 0 ;
+1 x222 -1 x39 -1 x54 >= -1 ;
-1 x209 +1 x38 >= 0 ;
-1 x209 +1 x55 >= 0 ;
+1 x209 -1 x38 -1 x55 >= -1 ;
-1 x196 +1 x37 >= 0 ;
-1 x196 +1 x56 >= 0 ;
+1 x196 -1 x37 -1 x56 >= -1 ;
-1 x849 +1 x28 >= 0 ;
-1 x849 +1 x9 >= 0 ;
+1 x849 -1 x28 -1 x9 >= -1 ;
-1 x836 +1 x27 >= 0 ;
-1 x836 +1 x10 >= 0 ;
+1 x836 -1 x27 -1 x10 >= -1 ;
-1 x823 +1 x26 >= 0 ;
-1 x823 +1 x11 >= 0 ;
+1 x823 -1 x26 -1 x11 >= -1 ;
-1 x810 +1 x25 >= 0 ;
-1 x810 +1 x12 >= 0 ;
+1 x810 -1 x25 -1 x12 >= -1 ;
-1 x797 +1 x24 >= 0 ;
-1 x797 +1 x13 >= 0 ;
+1 x797 -1 x24 -1 x13 >= -1 ;
-1 x784 +1 x23 >= 0 ;
-1 x784 +1 x14 >= 0 ;
+1 x784 -1 x23 -1 x14 >= -1 ;
-1 x262 +1 x42 >= 0 ;
-1 x262 +1 x52 >= 0 ;
+1 x262 -1 x42 -1 x52 >= -1 ;
-1 x249 +1 x41 >= 0 ;
-1 x249 +1 x53 >= 0 ;
+1 x249 -1 x41 -1 x53 >= -1 ;
-1 x236 +1 x40 >= 0 ;
-1 x236 +1 x54 >= 0 ;
+1 x236 -1 x40 -1 x54 >= -1 ;
-1 x223 +1 x39 >= 0 ;
-1 x223 +1 x55 >= 0 ;
+1 x223 -1 x39 -1 x55 >= -1 ;
-1 x210 +1 x38 >= 0 ;
-1 x210 +1 x56 >= 0 ;
+1 x210 -1 x38 -1 x56 >= -1 ;
-1 x850 +1 x28 >= 0 ;
-1 x850 +1 x10 >= 0 ;
+1 x850 -1 x28 -1 x10 >= -1 ;
-1 x837 +1 x27 >= 0 ;
-1 x837 +1 x11 >= 0 ;
+1 x837 -1 x27 -1 x11 >= -1 ;
-1 x824 +1 x26 >= 0 ;
-1 x824 +1 x12 >= 0 ;
+1 x824 -1 x26 -1 x12 >= -1 ;
-1 x811 +1 x25 >= 0 ;
-1 x811 +1 x13 >= 0 ;
+1 x811 -1 x25 -1 x13 >= -1 ;
-1 x798 +1 x24 >= 0 ;
-1 x798 +1 x14 >= 0 ;
+1 x798 -1 x24 -1 x14 >= -1 ;
-1 x263 +1 x42 >= 0 ;
-1 x263 +1 x53 >= 0 ;
+1 x263 -1 x42 -1 x53 >= -1 ;
-1 x250 +1 x41 >= 0 ;
-1 x250 +1 x54 >= 0 ;
+1 x250 -1 x41 -1 x54 >= -1 ;
-1 x237 +1 x40 >= 0 ;
-1 x237 +1 x55 >= 0 ;
+1 x237 -1 x40 -1 x55 >= -1 ;
-1 x224 +1 x39 >= 0 ;
-1 x224 +1 x56 >= 0 ;
+1 x224 -1 x39 -1 x56 >= -1 ;
-1 x851 +1 x28 >= 0 ;
-1 x851 +1 x11 >= 0 ;
+1 x851 -1 x28 -1 x11 >= -1 ;
-1 x838 +1 x27 >= 0 ;
-1 x838 +1 x12 >= 0 ;
+1 x838 -1 x27 -1 x12 >= -1 ;
-1 x825 +1 x26 >= 0 ;
-1 x825 +1 x13 >= 0 ;
+1 x825 -1 x26 -1 x13 >= -1 ;
-1 x812 +1 x25 >= 0 ;
-1 x812 +1 x14 >= 0 ;
+1 x812 -1 x25 -1 x14 >= -1 ;
-1 x264 +1 x42 >= 0 ;
-1 x264 +1 x54 >= 0 ;
+1 x264 -1 x42 -1 x54 >= -1 ;
-1 x251 +1 x41 >= 0 ;
-1 x251 +1 x55 >= 0 ;
+1 x251 -1 x41 -1 x55 >= -1 ;
-1 x238 +1 x40 >= 0 ;
-1 x238 +1 x56 >= 0 ;
+1 x238 -1 x40 -1 x56 >= -1 ;
-1 x852 +1 x28 >= 0 ;
-1 x852 +1 x12 >= 0 ;
+1 x852 -1 x28 -1 x12 >= -1 ;
-1 x839 +1 x27 >= 0 ;
-1 x839 +1 x13 >= 0 ;
+1 x839 -1 x27 -1 x13 >= -1 ;
-1 x826 +1 x26 >= 0 ;
-1 x826 +1 x14 >= 0 ;
+1 x826 -1 x26 -1 x14 >= -1 ;
-1 x265 +1 x42 >= 0 ;
-1 x265 +1 x55 >= 0 ;
+1 x265 -1 x42 -1 x55 >= -1 ;
-1 x252 +1 x41 >= 0 ;
-1 x252 +1 x56 >= 0 ;
+1 x252 -1 x41 -1 x56 >= -1 ;
-1 x853 +1 x28 >= 0 ;
-1 x853 +1 x13 >= 0 ;
+1 x853 -1 x28 -1 x13 >= -1 ;
-1 x840 +1 x27 >= 0 ;
-1 x840 +1 x14 >= 0 ;
+1 x840 -1 x27 -1 x14 >= -1 ;
-1 x266 +1 x42 >= 0 ;
-1 x266 +1 x56 >= 0 ;
+1 x266 -1 x42 -1 x56 >= -1 ;
-1 x854 +1 x28 >= 0 ;
-1 x854 +1 x14 >= 0 ;
+1 x854 -1 x28 -1 x14 >= -1 ;
